100
32
2
9
4
16
26
1
10
10
24
3
12
13
6
12
5
30
7
2
13
6
14
18
13
8
5
24
8
29
14
11
5
3
29
21
12
19
3
11
17
19
4
3
3
18
8
18
10
8
4
6
4
24
15
3
1
20
17
16
10
18
12
2
2
19
19
2
14
7
13
15
17
4
25
6
2
32
7
19
27
5
17
6
7
15
4
17
19
4
1
29
5
3
16
4
6
5
14
18
5
4